Output/BruteForce/Random_010_04_4.ans
Facilties: 1 2 3 4 Score: 38
