Output/Exact/Random_010_04_4.lp.out
CPU Time for Parsing input: 0.001437s (0.001437s total since program start)
CPU Time for solving: 0.005214s (0.006651s total since program start)

Value of objective function: 38.00000000
